122 5
10 10 10 10 10 

0 0 0 0 0 0 5 2 14 26 38 50 
0 0 0 0 0 0 4 3 5 6 12 
2 3 0 0 0 0 1 4 
5 8 0 0 0 0 3 11 10 7 
5 8 0 0 0 0 2 11 8 
7 8 0 0 0 0 3 10 9 35 
3 10 0 0 0 0 1 8 
9 6 0 0 0 0 1 9 
8 8 0 0 0 0 1 13 
3 8 0 0 0 0 1 13 
10 6 0 0 0 0 1 13 
7 10 0 0 0 0 1 13 
0 0 0 0 0 0 1 62 
0 0 0 0 0 0 2 15 17 
9 0 0 0 0 2 2 24 16 
4 0 0 0 0 10 4 23 22 21 18 
10 0 0 0 0 9 3 21 19 44 
5 0 0 0 0 8 1 19 
4 0 0 0 0 5 1 20 
7 0 0 0 0 8 1 25 
9 0 0 0 0 7 1 25 
2 0 0 0 0 8 1 25 
4 0 0 0 0 10 1 25 
9 0 0 0 0 8 1 25 
0 0 0 0 0 0 1 62 
0 0 0 0 0 0 4 27 30 36 51 
4 0 0 0 0 1 2 34 28 
2 0 0 0 0 10 2 35 29 
1 0 0 0 0 10 2 32 31 
3 0 0 0 0 7 2 34 32 
5 0 0 0 0 8 1 33 
6 0 0 0 0 9 1 37 
6 0 0 0 0 6 1 37 
8 0 0 0 0 8 1 37 
2 0 0 0 0 7 1 37 
4 0 0 0 0 9 1 37 
0 0 0 0 0 0 1 62 
0 0 0 0 0 0 4 39 40 44 48 
6 4 0 0 0 0 2 46 41 
8 8 0 0 0 0 2 47 42 
5 10 0 0 0 0 1 42 
5 6 0 0 0 0 1 43 
1 8 0 0 0 0 1 45 
5 8 0 0 0 0 2 46 58 
7 10 0 0 0 0 1 49 
3 9 0 0 0 0 1 49 
10 5 0 0 0 0 1 49 
8 7 0 0 0 0 1 49 
0 0 0 0 0 0 1 62 
0 0 0 0 0 0 4 51 54 56 83 
5 4 0 0 0 0 2 53 52 
8 10 0 0 0 0 2 58 55 
7 3 0 0 0 0 2 58 55 
2 10 0 0 0 0 3 60 58 57 
1 6 0 0 0 0 2 60 57 
4 10 0 0 0 0 1 57 
1 9 0 0 0 0 1 59 
1 5 0 0 0 0 1 59 
1 9 0 0 0 0 1 61 
2 9 0 0 0 0 1 61 
0 0 0 0 0 0 1 62 
0 0 0 0 0 0 2 63 75 
0 0 0 0 0 0 1 64 
8 1 0 0 0 0 2 66 65 
8 10 0 0 0 0 3 70 68 67 
9 6 0 0 0 0 2 67 79 
4 9 0 0 0 0 2 73 69 
3 10 0 0 0 0 2 73 69 
6 4 0 0 0 0 2 72 71 
7 8 0 0 0 0 2 72 71 
9 8 0 0 0 0 1 74 
1 9 0 0 0 0 1 74 
8 10 0 0 0 0 1 74 
0 0 0 0 0 0 1 87 
0 0 0 0 0 0 3 76 77 79 
9 0 0 0 2 0 2 84 78 
7 0 0 0 8 0 2 82 78 
10 0 0 0 10 0 2 81 80 
10 0 0 0 9 0 2 82 80 
3 0 0 0 10 0 1 83 
9 0 0 0 10 0 1 83 
7 0 0 0 5 0 1 83 
5 0 0 0 4 0 1 85 
2 0 0 0 8 0 1 85 
10 0 0 0 9 0 1 86 
0 0 0 0 0 0 1 87 
0 0 0 0 0 0 2 88 89 
3 0 0 5 0 0 1 90 
4 0 0 7 0 0 1 90 
6 0 0 10 0 0 2 93 91 
3 0 0 4 0 0 3 97 96 92 
2 0 0 5 0 0 2 95 94 
8 0 0 10 0 0 2 95 94 
9 0 0 10 0 0 1 98 
7 0 0 10 0 0 1 98 
2 0 0 4 0 0 1 98 
10 0 0 10 0 0 1 98 
0 0 0 0 0 0 1 99 
0 0 0 0 0 0 4 100 102 105 109 
7 0 0 0 5 0 2 107 101 
4 0 0 0 6 0 1 103 
7 0 0 0 9 0 2 108 107 
8 0 0 0 5 0 1 104 
8 0 0 0 9 0 1 106 
6 0 0 0 10 0 1 107 
10 0 0 0 9 0 1 110 
4 0 0 0 10 0 1 110 
9 0 0 0 8 0 1 110 
9 0 0 0 4 0 1 110 
0 0 0 0 0 0 1 111 
0 0 0 0 0 0 3 112 113 114 
10 0 0 2 0 0 3 117 116 115 
8 0 0 8 0 0 3 117 116 115 
7 0 0 7 0 0 2 117 115 
4 0 0 9 0 0 2 121 118 
1 0 0 10 0 0 2 121 118 
1 0 0 10 0 0 1 118 
2 0 0 10 0 0 1 119 
1 0 0 7 0 0 1 120 
5 0 0 5 0 0 1 122 
6 0 0 7 0 0 1 122 
0 0 0 0 0 0 0 
